32	0

0	2	2	4
5	2	3	5
10	1	6
6	1	5
8	1	6
10	1	7
9	2	8	9
7	2	10	12
6	3	10	11	12
9	2	14	17
7	2	13	15
6	2	13	15
3	2	14	17
3	1	16
5	2	16	17
8	2	18	19
2	2	18	19
6	1	20
4	2	20	21
5	2	22	23
7	2	22	23
7	1	24
4	1	24
1	1	25
3	2	26	28
1	1	27
1	1	29
9	1	29
3	2	30	31
1	1	32
6	1	32
0	0
